language Essence 1.3

letting bot_end be
        [323, 1, 362, 348, 231, 8, 122, 29, 361, 22, 266, 350, 132, 20, 351, 318, 328, 349, 89, 260, 27; int(1..21)]
letting bot_start be
        [121, 294, 150, 149, 27, 242, 362, 314, 152, 248, 23, 117, 309, 249, 137, 41, 56, 133, 351, 60, 245; int(1..21)]
letting buffer_col be 2
letting buffer_row be 2
letting corridor_size be 1
letting n_shelves_col be 1
letting n_shelves_row be 24
letting shelf_col_size be 2
letting shelf_row_size be 1
